50
497 4970 1008 497 560 560 3479 560 994 3479 3479 497 3976 672 336 497 1491 4473 3976 1120 112 672 224 896 2982 784 224 112 784 994 3479 4970 3479 4970 560 1120 3479 784 2485 896 1491 1988 784 4473 784 994 1491 1988 112 4473 
420 4200 4311 420 2395 2395 2940 2395 840 2940 2940 420 3360 2874 1437 420 1260 3780 3360 4790 479 2874 958 3832 2520 3353 958 479 3353 840 2940 4200 2940 4200 2395 4790 2940 3353 2100 3832 1260 1680 3353 3780 3353 840 1260 1680 479 3780 
44408
